7
0, 527, 334, 246, 322, 399, 644
527, 0, 495, 292, 746, 566, 641
334, 495, 0, 375, 655, 83, 900
246, 292, 375, 0, 462, 458, 531
322, 746, 655, 462, 0, 715, 533
399, 566, 83, 458, 715, 0, 982
644, 641, 900, 531, 533, 982, 0
